(set-logic QF_S)
(declare-fun var0 () String)
(assert (RegexIn var0 (RegexConcat (RegexPlus (RegexUnion (Str2Reg "000") (Str2Reg "111"))) (RegexConcat (RegexPlus (RegexUnion (Str2Reg "22") (Str2Reg "3"))) (RegexConcat (RegexUnion (RegexPlus (Str2Reg "4")) (RegexPlus (Str2Reg "555"))) (RegexConcat (RegexPlus (RegexUnion (Str2Reg "66") (Str2Reg "7"))) (RegexConcat (RegexPlus (RegexPlus (Str2Reg "88"))) (RegexConcat (RegexPlus (RegexPlus (Str2Reg "99"))) (RegexConcat (RegexPlus (RegexStar (Str2Reg "aaa"))) (RegexConcat (RegexUnion (RegexUnion (Str2Reg "bb") (Str2Reg "ccc")) (RegexUnion (Str2Reg "d") (Str2Reg "e"))) (RegexConcat (RegexPlus (RegexStar (Str2Reg "ff"))) (RegexConcat (RegexUnion (RegexPlus (Str2Reg "gg")) (RegexPlus (Str2Reg "h"))) (RegexConcat (RegexPlus (RegexPlus (Str2Reg "i"))) (RegexConcat (RegexUnion (RegexPlus (Str2Reg "jj")) (RegexPlus (Str2Reg "k"))) (RegexConcat (RegexStar (RegexStar (Str2Reg "lll"))) (RegexConcat (RegexUnion (RegexStar (Str2Reg "mm")) (RegexStar (Str2Reg "nn"))) (RegexConcat (RegexUnion (RegexPlus (Str2Reg "oo")) (RegexPlus (Str2Reg "p"))) (RegexConcat (RegexUnion (RegexUnion (Str2Reg "q") (Str2Reg "rrr")) (RegexUnion (Str2Reg "s") (Str2Reg "ttt"))) (RegexConcat (RegexStar (RegexStar (Str2Reg "uu"))) (RegexConcat (RegexPlus (RegexStar (Str2Reg "v"))) (RegexConcat (RegexUnion (RegexUnion (Str2Reg "www") (Str2Reg "xx")) (RegexUnion (Str2Reg "yy") (Str2Reg "zzz"))) (RegexConcat (RegexStar (RegexStar (Str2Reg "AAA"))) (RegexConcat (RegexUnion (RegexPlus (Str2Reg "BB")) (RegexPlus (Str2Reg "CC"))) (RegexConcat (RegexUnion (RegexStar (Str2Reg "DDD")) (RegexStar (Str2Reg "EE"))) (RegexConcat (RegexStar (RegexPlus (Str2Reg "FFF"))) (RegexConcat (RegexStar (RegexPlus (Str2Reg "GGG"))) (RegexConcat (RegexUnion (RegexStar (Str2Reg "HH")) (RegexStar (Str2Reg "III"))) (RegexConcat (RegexUnion (RegexUnion (Str2Reg "JJ") (Str2Reg "KK")) (RegexUnion (Str2Reg "LL") (Str2Reg "MM"))) (RegexConcat (RegexStar (RegexUnion (Str2Reg "NN") (Str2Reg "O"))) (RegexConcat (RegexPlus (RegexPlus (Str2Reg "PPP"))) (RegexConcat (RegexUnion (RegexUnion (Str2Reg "QQ") (Str2Reg "RR")) (RegexUnion (Str2Reg "SS") (Str2Reg "T"))) (RegexConcat (RegexUnion (RegexUnion (Str2Reg "UUU") (Str2Reg "VV")) (RegexUnion (Str2Reg "WWW") (Str2Reg "XX"))) (RegexConcat (RegexStar (RegexUnion (Str2Reg "YYY") (Str2Reg "ZZ"))) (RegexConcat (RegexUnion (RegexUnion (Str2Reg "!") (Str2Reg "\"\"")) (RegexUnion (Str2Reg "#") (Str2Reg "$$$"))) (RegexConcat (RegexPlus (RegexUnion (Str2Reg "%%") (Str2Reg "&&"))) (RegexConcat (RegexPlus (RegexPlus (Str2Reg "'"))) (RegexConcat (RegexUnion (RegexStar (Str2Reg "(")) (RegexStar (Str2Reg ")))"))) (RegexConcat (RegexStar (RegexUnion (Str2Reg "*") (Str2Reg "++"))) (RegexConcat (RegexPlus (RegexStar (Str2Reg ",,"))) (RegexConcat (RegexUnion (RegexPlus (Str2Reg "---")) (RegexPlus (Str2Reg "..."))) (RegexConcat (RegexUnion (RegexStar (Str2Reg "/")) (RegexStar (Str2Reg ":"))) (RegexConcat (RegexPlus (RegexStar (Str2Reg ";;;"))) (RegexConcat (RegexUnion (RegexPlus (Str2Reg "<<")) (RegexPlus (Str2Reg "="))) (RegexConcat (RegexStar (RegexUnion (Str2Reg ">") (Str2Reg "??"))) (RegexConcat (RegexUnion (RegexStar (Str2Reg "@@")) (RegexStar (Str2Reg "["))) (RegexConcat (RegexUnion (RegexStar (Str2Reg "\\\\")) (RegexStar (Str2Reg "]]"))) (RegexConcat (RegexUnion (RegexPlus (Str2Reg "^")) (RegexPlus (Str2Reg "_"))) (RegexConcat (RegexPlus (RegexStar (Str2Reg "```"))) (RegexConcat (RegexPlus (RegexStar (Str2Reg "{"))) (RegexConcat (RegexStar (RegexStar (Str2Reg "|"))) (RegexConcat (RegexPlus (RegexPlus (Str2Reg "}"))) (RegexConcat (RegexUnion (RegexStar (Str2Reg "~~~")) (RegexStar (Str2Reg "0"))) (RegexPlus (RegexStar (Str2Reg "1")))))))))))))))))))))))))))))))))))))))))))))))))))))))
(check-sat)